28513.14
64 69 49 125 11 83 41 81 131 94 86 129 7 108 36 56 103 120 77 88 122 24 145 115 60 52 117 47 39 44 73 101 10 109 74 136 134 1 34 17 55 121 33 15 22 97 119 106 85 89 91 65 51 133 148 95 146 37 84 8 110 23 26 35 28 112 98 92 61 12 90 18 96 144 140 53 100 48 42 139 78 43 67 130 63 4 105 13 62 57 116 46 82 16 149 21 93 127 58 3 30 14 123 80 137 75 54 66 72 141 29 102 132 32 135 99 5 142 147 143 138 128 114 68 76 38 118 124 40 6 50 19 87 0 107 70 27 71 111 79 2 126 20 104 45 31 25 113 9 59